============================[ Problem Statistics ]=============================|                                                                             ||  Number of variables:          4242                                         ||  Number of clauses:            9624                                         ||  Parse time:                   0.03 s                                       ||                                                                             |============================[ Search Statistics ]==============================| Conflicts |          ORIGINAL         |          LEARNT          | Progress ||           |    Vars  Clauses Literals |    Limit  Clauses Lit/Cl |          |==============================================================================================================================================================restarts              : 1conflicts             : 20             (513 /sec)decisions             : 106            (0.00 % random) (2718 /sec)propagations          : 8045           (206282 /sec)conflict literals     : 285            (94.16 % deleted)CPU time              : 0.039 sSATISFIABLE